(set-info :source  loris-7.ddns.comp.nus.edu.sg/~project/hip/) 
;Variables declarations
(declare-fun res () Int)
(declare-fun v_boolean_112_4803_primed () Int)
(declare-fun x () Int)
(declare-fun x_primed () Int)
(declare-fun v_bool_105_4805_primed () Int)
(declare-fun bh () Int)
(declare-fun n () Int)
(declare-fun cl () Int)
(declare-fun flted_12_8047 () Int)
(declare-fun flted_12_8048 () Int)
(declare-fun flted_12_8049 () Int)
(declare-fun v_bool_109_4804_primed () Int)
(declare-fun v_8210 () Int)
(declare-fun v_8050 () Int)
(declare-fun l_8211 () Int)
(declare-fun l_8051 () Int)
(declare-fun r_8214 () Int)
(declare-fun r_8054 () Int)
(declare-fun nl_8212 () Int)
(declare-fun nl_8052 () Int)
(declare-fun bhl_8053 () Int)
(declare-fun nr_8215 () Int)
(declare-fun nr_8055 () Int)
(declare-fun bhr_8056 () Int)
(declare-fun bhl_8213 () Int)
(declare-fun bhr_8216 () Int)
;Relations declarations
;Axioms assertions
;Antecedent
(assert (= res v_boolean_112_4803_primed))
(assert (not (> v_boolean_112_4803_primed 0)))
(assert (= x_primed x))
(assert (> x_primed 0))
(assert (not (> v_bool_105_4805_primed 0)))
(assert (= bhr_8056 bh))
(assert (= bhl_8053 bh))
(assert (= n (+ (+ nr_8055 1) nl_8052)))
(assert (= cl 1))
(assert (= flted_12_8047 0))
(assert (= flted_12_8048 0))
(assert (= flted_12_8049 1))
(assert (not (= flted_12_8049 0)))
(assert (not (> v_bool_109_4804_primed 0)))
(assert (= v_8210 v_8050))
(assert (= l_8211 l_8051))
(assert (= r_8214 r_8054))
(assert (= nl_8212 nl_8052))
(assert (= bhl_8213 bhl_8053))
(assert (= nr_8215 nr_8055))
(assert (= bhr_8216 bhr_8056))
(assert (= bhl_8213 bhr_8216))
;Negation of Consequence
(assert (not false))
(check-sat)